Version identifier: 12.10.0.0 | 2019-11-26 | 843d4de
CPXPARAM_WorkMem                                 28672
Tried aggregator 2 times.
Aggregator did 50 substitutions.
Reduced MIP has 163 rows, 180 columns, and 771 nonzeros.
Reduced MIP has 180 binaries, 0 generals, 0 SOSs, and 0 indicators.
Presolve time = 0,00 sec. (0,78 ticks)
Found incumbent of value 882,000000 after 0,00 sec. (1,17 ticks)
Probing time = 0,00 sec. (0,37 ticks)
Tried aggregator 1 time.
Detecting symmetries...
MIP Presolve eliminated 21 rows and 0 columns.
MIP Presolve added 42 rows and 0 columns.
Reduced MIP has 184 rows, 180 columns, and 792 nonzeros.
Reduced MIP has 180 binaries, 0 generals, 0 SOSs, and 0 indicators.
Presolve time = 0,00 sec. (1,05 ticks)
Probing time = 0,00 sec. (0,36 ticks)
Clique table members: 571.
MIP emphasis: balance optimality and feasibility.
MIP search method: dynamic search.
Parallel mode: deterministic, using up to 16 threads.
Root relaxation solution time = 0,00 sec. (0,42 ticks)

        Nodes                                         Cuts/
   Node  Left     Objective  IInf  Best Integer    Best Bound    ItCnt     Gap

*     0+    0                          882,0000        0,0000           100,00%
*     0+    0                          499,0000        0,0000           100,00%
      0     0      294,0000   112      499,0000      294,0000       42   41,08%
      0     0      294,0000   112      499,0000     Cuts: 146       76   41,08%
      0     0      294,0000   112      499,0000     Cuts: 128       97   41,08%
      0     0      294,5333   112      499,0000     Cuts: 146      128   40,98%
      0     0      294,8426   112      499,0000     Cuts: 149      144   40,91%
      0     0      295,1667   112      499,0000     Cuts: 120      149   40,85%
      0     0      314,0319   112      499,0000     Cuts: 147      226   37,07%
      0     0      314,5217   112      499,0000       Cuts: 3      230   36,97%
*     0+    0                          497,0000      314,5217            36,72%
      0     2      314,5217   169      497,0000      346,9167      230   30,20%
Elapsed time = 0,09 sec. (43,10 ticks, tree = 0,02 MB, solutions = 3)

Clique cuts applied:  87
Cover cuts applied:  106
Implied bound cuts applied:  4
Mixed integer rounding cuts applied:  89
Zero-half cuts applied:  3
Gomory fractional cuts applied:  2

Root node processing (before b&c):
  Real time             =    0,08 sec. (42,88 ticks)
Parallel b&c, 16 threads:
  Real time             =    0,03 sec. (15,33 ticks)
  Sync time (average)   =    0,02 sec.
  Wait time (average)   =    0,00 sec.
                          ------------
Total (root+branch&cut) =    0,12 sec. (58,21 ticks)
